
n_res = 6;
rcap = [35, 36, 31, 34, 614, 586];
rtype = [1, 1, 1, 1, 2, 2];
n_tasks = 50;
modes =  [{1, 2, 3, 4, 5, 6}, {7, 8, 9, 10, 11, 12}, {13, 14, 15, 16, 17, 18}, {19, 20, 21, 22, 23, 24}, {25, 26, 27, 28, 29, 30}, {31, 32, 33, 34, 35, 36}, {37, 38, 39, 40, 41, 42}, {43, 44, 45, 46, 47, 48}, {49, 50, 51, 52, 53, 54}, {55, 56, 57, 58, 59, 60}, {61, 62, 63, 64, 65, 66}, {67, 68, 69, 70, 71, 72}, {73, 74, 75, 76, 77, 78}, {79, 80, 81, 82, 83, 84}, {85, 86, 87, 88, 89, 90}, {91, 92, 93, 94, 95, 96}, {97, 98, 99, 100, 101, 102}, {103, 104, 105, 106, 107, 108}, {109, 110, 111, 112, 113, 114}, {115, 116, 117, 118, 119, 120}, {121, 122, 123, 124, 125, 126}, {127, 128, 129, 130, 131, 132}, {133, 134, 135, 136, 137, 138}, {139, 140, 141, 142, 143, 144}, {145, 146, 147, 148, 149, 150}, {151, 152, 153, 154, 155, 156}, {157, 158, 159, 160, 161, 162}, {163, 164, 165, 166, 167, 168}, {169, 170, 171, 172, 173, 174}, {175, 176, 177, 178, 179, 180}, {181, 182, 183, 184, 185, 186}, {187, 188, 189, 190, 191, 192}, {193, 194, 195, 196, 197, 198}, {199, 200, 201, 202, 203, 204}, {205, 206, 207, 208, 209, 210}, {211, 212, 213, 214, 215, 216}, {217, 218, 219, 220, 221, 222}, {223, 224, 225, 226, 227, 228}, {229, 230, 231, 232, 233, 234}, {235, 236, 237, 238, 239, 240}, {241, 242, 243, 244, 245, 246}, {247, 248, 249, 250, 251, 252}, {253, 254, 255, 256, 257, 258}, {259, 260, 261, 262, 263, 264}, {265, 266, 267, 268, 269, 270}, {271, 272, 273, 274, 275, 276}, {277, 278, 279, 280, 281, 282}, {283, 284, 285, 286, 287, 288}, {289, 290, 291, 292, 293, 294}, {295, 296, 297, 298, 299, 300}];
succ =  [{48, 47, 46, 45, 44, 43, 42, 41, 39, 37, 30, 26, 22, 20}, {49, 46, 44, 40, 30, 22, 15, 14}, {50, 49, 47, 42, 40, 30, 29, 27, 22, 14}, {50, 49, 47, 46, 44, 43, 41, 39, 38, 33, 31, 29, 27, 22}, {43, 42, 39, 31, 30, 29, 26, 24, 23, 22}, {48, 43, 40, 38, 30, 25, 23, 22, 19}, {50, 45, 44, 41, 40, 39, 38, 35, 34, 32, 31, 30, 29}, {50, 49, 46, 45, 42, 41, 39, 38, 37, 34, 33, 32, 25}, {46, 42, 39, 38, 37, 30, 22, 20}, {47, 45, 42, 41, 39, 38, 37, 36, 30, 22}, {45, 41, 40, 39, 34, 33, 32, 31, 25}, {48, 44, 34, 29, 26, 24}, {48, 46, 43, 40, 38, 37, 36, 34, 32, 30}, {48, 43, 41, 39, 38, 37, 35, 34, 33, 32}, {47, 39, 34, 32, 31, 25}, {47, 40, 32, 30, 25}, {46, 43, 42, 39, 30, 29}, {43, 42, 41, 38, 34, 33, 32}, {42, 41, 37, 34, 29}, {40, 34, 25}, {40, 39, 35, 33, 32}, {35, 34, 32}, {44, 34, 33}, {40, 35, 33}, {35, 29}, {38, 32}, {45, 32}, {44, 32}, {36}, {33}, {37}, {}, {}, {}, {}, {}, {}, {}, {}, {}, {}, {}, {}, {}, {}, {}, {}, {}, {}, {}];
n_opt = 300;
dur = [2, 9, 10, 14, 26, 30, 8, 12, 13, 19, 20, 26, 4, 5, 9, 15, 20, 23, 12, 13, 14, 16, 17, 28, 4, 14, 15, 20, 22, 27, 5, 10, 18, 20, 21, 25, 1, 6, 11, 12, 21, 22, 8, 11, 16, 17, 20, 26, 1, 2, 8, 17, 20, 22, 3, 13, 14, 17, 24, 26, 10, 22, 23, 24, 26, 28, 5, 14, 15, 28, 29, 30, 10, 14, 15, 21, 27, 28, 2, 3, 4, 25, 27, 29, 8, 14, 15, 17, 23, 29, 12, 16, 18, 19, 20, 23, 7, 9, 13, 14, 21, 27, 2, 3, 9, 14, 26, 27, 2, 4, 7, 12, 26, 28, 9, 15, 17, 19, 20, 22, 2, 5, 11, 17, 20, 23, 2, 4, 10, 11, 21, 23, 3, 4, 22, 24, 25, 30, 15, 16, 17, 19, 24, 25, 7, 8, 12, 21, 26, 30, 2, 13, 18, 22, 26, 29, 8, 9, 14, 15, 18, 19, 2, 2, 3, 5, 14, 17, 1, 3, 11, 13, 15, 20, 3, 4, 15, 20, 22, 28, 4, 10, 24, 25, 27, 29, 2, 4, 5, 6, 14, 19, 4, 5, 9, 12, 18, 22, 12, 18, 21, 24, 26, 30, 1, 4, 8, 9, 11, 19, 1, 2, 10, 16, 24, 26, 6, 10, 14, 18, 21, 22, 2, 5, 8, 18, 24, 25, 5, 11, 18, 21, 22, 30, 3, 4, 10, 15, 17, 27, 6, 12, 15, 19, 29, 30, 11, 12, 13, 14, 16, 27, 13, 19, 20, 21, 22, 28, 6, 8, 14, 16, 18, 30, 1, 8, 9, 12, 20, 22, 1, 2, 8, 21, 26, 28, 9, 11, 17, 22, 26, 28, 7, 9, 14, 16, 19, 21, 9, 12, 13, 14, 18, 19, 2, 5, 15, 19, 22, 24];
rreq = [|2, 2, 2, 2, 1, 1, 4, 3, 3, 3, 3, 3, 4, 4, 4, 3, 3, 2, 4, 4, 4, 3, 3, 2, 5, 4, 4, 4, 4, 4, 5, 4, 3, 3, 3, 2, 5, 5, 5, 5, 5, 5, 5, 4, 3, 3, 2, 2, 5, 5, 5, 5, 5, 5, 4, 3, 3, 3, 2, 2, 3, 3, 3, 3, 3, 3, 1, 1, 1, 1, 1, 1, 2, 1, 1, 1, 1, 1, 5, 4, 3, 2, 1, 1, 3, 3, 3, 3, 3, 3, 4, 3, 3, 3, 3, 3, 4, 3, 3, 3, 3, 3, 3, 3, 3, 2, 2, 2, 2, 2, 2, 2, 2, 2, 4, 3, 3, 2, 1, 1, 2, 1, 1, 1, 1, 1, 5, 4, 4, 4, 4, 4, 2, 1, 1, 1, 1, 1, 4, 4, 4, 4, 3, 3, 5, 5, 5, 5, 5, 5, 2, 2, 2, 2, 2, 2, 1, 1, 1, 1, 1, 1, 3, 3, 3, 2, 1, 1, 3, 2, 2, 2, 2, 2, 4, 4, 3, 2, 2, 1, 3, 2, 2, 2, 2, 2, 2, 2, 2, 2, 2, 2, 4, 4, 4, 4, 4, 4, 4, 3, 3, 3, 2, 2, 4, 4, 4, 4, 4, 4, 4, 3, 3, 3, 3, 3, 3, 2, 2, 2, 2, 2, 1, 1, 1, 1, 1, 1, 2, 2, 2, 2, 2, 2, 4, 4, 4, 3, 3, 3, 3, 2, 2, 2, 2, 2, 4, 3, 3, 2, 2, 2, 4, 4, 4, 4, 4, 4, 4, 4, 4, 4, 4, 4, 3, 3, 3, 3, 3, 3, 4, 3, 3, 3, 3, 3, 3, 2, 2, 1, 1, 1, 5, 4, 4, 3, 3, 2, 4, 4, 4, 4, 4, 4, 5, 4, 3, 2, 2, 1
 |5, 5, 5, 5, 5, 5, 3, 2, 2, 2, 1, 1, 4, 3, 3, 3, 3, 3, 1, 1, 1, 1, 1, 1, 5, 4, 3, 2, 2, 1, 3, 3, 3, 3, 3, 3, 4, 4, 4, 4, 4, 4, 4, 4, 4, 4, 4, 4, 4, 3, 3, 3, 3, 3, 5, 5, 5, 5, 5, 5, 3, 3, 2, 2, 2, 1, 5, 4, 3, 3, 2, 1, 3, 3, 3, 3, 3, 3, 5, 5, 5, 5, 5, 5, 4, 4, 4, 4, 4, 4, 5, 4, 3, 2, 1, 1, 2, 2, 2, 2, 2, 2, 5, 4, 4, 4, 4, 4, 5, 4, 4, 4, 3, 3, 4, 3, 2, 2, 2, 1, 3, 2, 2, 2, 1, 1, 3, 3, 3, 2, 1, 1, 5, 4, 4, 4, 4, 4, 4, 4, 4, 4, 4, 4, 1, 1, 1, 1, 1, 1, 1, 1, 1, 1, 1, 1, 2, 2, 2, 2, 2, 2, 4, 4, 4, 4, 4, 4, 2, 2, 2, 1, 1, 1, 4, 3, 3, 2, 2, 2, 4, 4, 4, 4, 4, 4, 2, 2, 2, 2, 2, 2, 3, 2, 2, 1, 1, 1, 4, 4, 4, 4, 4, 4, 2, 2, 2, 2, 2, 2, 5, 4, 3, 3, 2, 2, 5, 4, 4, 4, 4, 4, 5, 4, 4, 4, 4, 4, 3, 3, 3, 2, 1, 1, 3, 3, 3, 2, 1, 1, 1, 1, 1, 1, 1, 1, 5, 4, 4, 4, 3, 3, 4, 3, 3, 3, 2, 1, 5, 4, 3, 3, 2, 2, 5, 3, 3, 2, 1, 1, 3, 3, 3, 2, 2, 2, 4, 4, 3, 2, 1, 1, 1, 1, 1, 1, 1, 1, 2, 2, 2, 2, 2, 2, 3, 3, 3, 3, 2, 2
 |2, 2, 2, 2, 2, 2, 4, 4, 4, 4, 3, 3, 5, 4, 3, 2, 2, 1, 2, 2, 2, 2, 2, 2, 4, 3, 2, 2, 1, 1, 3, 2, 2, 2, 1, 1, 4, 3, 3, 3, 2, 2, 2, 1, 1, 1, 1, 1, 2, 1, 1, 1, 1, 1, 2, 1, 1, 1, 1, 1, 3, 2, 2, 1, 1, 1, 3, 2, 2, 2, 2, 2, 3, 2, 2, 2, 2, 2, 4, 3, 3, 2, 1, 1, 1, 1, 1, 1, 1, 1, 4, 3, 3, 2, 2, 1, 3, 3, 3, 2, 2, 1, 3, 3, 3, 3, 2, 2, 2, 1, 1, 1, 1, 1, 1, 1, 1, 1, 1, 1, 5, 4, 4, 4, 3, 3, 4, 4, 4, 4, 3, 3, 3, 3, 2, 2, 2, 1, 2, 2, 2, 2, 1, 1, 5, 3, 3, 3, 1, 1, 2, 1, 1, 1, 1, 1, 4, 4, 4, 4, 4, 4, 4, 4, 4, 4, 4, 4, 1, 1, 1, 1, 1, 1, 2, 2, 2, 1, 1, 1, 4, 3, 3, 3, 3, 3, 5, 5, 5, 5, 5, 5, 2, 2, 2, 1, 1, 1, 4, 3, 2, 2, 2, 1, 5, 4, 4, 3, 2, 2, 4, 4, 4, 3, 2, 2, 5, 4, 4, 4, 4, 4, 3, 2, 2, 1, 1, 1, 2, 2, 2, 2, 2, 2, 4, 3, 3, 3, 2, 2, 3, 3, 3, 3, 3, 3, 4, 4, 4, 4, 4, 4, 2, 2, 2, 1, 1, 1, 4, 4, 4, 4, 4, 4, 2, 2, 2, 2, 2, 2, 4, 4, 4, 3, 3, 3, 2, 2, 2, 2, 2, 2, 5, 4, 3, 3, 3, 2, 2, 2, 2, 2, 2, 2, 4, 4, 3, 3, 3, 2
 |3, 3, 3, 3, 3, 3, 5, 4, 4, 4, 4, 4, 5, 4, 4, 4, 4, 4, 3, 2, 2, 1, 1, 1, 4, 4, 4, 4, 3, 3, 1, 1, 1, 1, 1, 1, 1, 1, 1, 1, 1, 1, 3, 2, 2, 2, 2, 2, 5, 4, 3, 2, 1, 1, 4, 4, 4, 4, 4, 4, 3, 3, 3, 3, 2, 2, 4, 4, 4, 3, 3, 3, 3, 2, 2, 2, 1, 1, 3, 2, 2, 1, 1, 1, 3, 3, 3, 2, 2, 1, 5, 3, 3, 3, 2, 1, 3, 3, 3, 3, 3, 3, 4, 3, 3, 3, 3, 3, 2, 1, 1, 1, 1, 1, 3, 3, 3, 3, 3, 3, 4, 4, 3, 2, 1, 1, 2, 2, 2, 2, 2, 2, 5, 4, 4, 3, 3, 2, 4, 4, 4, 3, 2, 2, 2, 1, 1, 1, 1, 1, 5, 4, 4, 4, 4, 4, 3, 2, 2, 2, 1, 1, 3, 3, 3, 3, 3, 3, 2, 2, 2, 2, 2, 2, 4, 4, 4, 4, 4, 4, 5, 4, 3, 3, 1, 1, 1, 1, 1, 1, 1, 1, 4, 4, 4, 4, 4, 4, 5, 5, 5, 5, 5, 5, 3, 2, 2, 1, 1, 1, 2, 2, 2, 2, 1, 1, 1, 1, 1, 1, 1, 1, 4, 3, 3, 3, 3, 3, 1, 1, 1, 1, 1, 1, 5, 4, 3, 3, 3, 2, 1, 1, 1, 1, 1, 1, 5, 4, 4, 4, 4, 4, 5, 4, 4, 3, 3, 2, 5, 4, 4, 3, 3, 3, 4, 4, 4, 4, 4, 4, 3, 3, 3, 3, 2, 2, 3, 3, 3, 3, 3, 3, 4, 4, 4, 3, 3, 3, 2, 2, 2, 2, 1, 1, 4, 4, 3, 3, 2, 2
 |14, 14, 14, 13, 12, 12, 16, 14, 12, 10, 10, 9, 19, 18, 16, 16, 13, 13, 15, 13, 13, 11, 9, 6, 10, 10, 8, 8, 6, 6, 16, 14, 11, 10, 9, 5, 12, 11, 11, 10, 10, 9, 27, 26, 23, 23, 21, 18, 19, 18, 15, 13, 13, 11, 16, 14, 13, 8, 7, 5, 6, 5, 5, 4, 4, 3, 21, 18, 17, 12, 12, 9, 20, 15, 13, 9, 6, 3, 28, 27, 27, 27, 27, 27, 8, 8, 8, 8, 8, 8, 26, 22, 20, 18, 17, 14, 27, 26, 24, 24, 23, 22, 23, 19, 19, 15, 15, 12, 24, 22, 22, 18, 17, 16, 24, 18, 15, 12, 9, 3, 14, 14, 14, 14, 14, 14, 22, 16, 12, 12, 7, 4, 11, 11, 8, 7, 7, 5, 21, 17, 16, 11, 11, 6, 14, 12, 11, 8, 7, 5, 8, 7, 6, 5, 3, 3, 21, 17, 15, 15, 12, 11, 19, 16, 16, 14, 13, 12, 11, 10, 10, 10, 10, 10, 20, 18, 17, 15, 12, 11, 8, 6, 5, 5, 3, 3, 8, 7, 6, 6, 5, 5, 23, 19, 16, 15, 9, 8, 5, 5, 5, 5, 4, 4, 29, 26, 25, 23, 20, 20, 23, 21, 20, 20, 16, 15, 9, 8, 7, 6, 6, 5, 18, 18, 16, 14, 10, 9, 15, 14, 12, 10, 8, 8, 14, 13, 12, 12, 11, 11, 24, 24, 24, 23, 23, 23, 17, 17, 17, 17, 16, 16, 25, 24, 22, 22, 20, 19, 28, 25, 19, 14, 10, 8, 29, 29, 28, 26, 25, 25, 14, 13, 13, 13, 13, 13, 29, 22, 20, 15, 13, 9, 15, 13, 10, 8, 7, 6, 22, 22, 20, 19, 18, 18, 13, 10, 9, 7, 5, 2
 |20, 19, 17, 16, 14, 13, 24, 20, 19, 14, 13, 11, 12, 10, 8, 7, 7, 5, 14, 14, 11, 10, 9, 7, 27, 22, 21, 16, 12, 9, 12, 12, 8, 7, 4, 2, 21, 18, 13, 8, 6, 3, 28, 23, 16, 13, 9, 7, 30, 29, 27, 27, 25, 25, 12, 12, 12, 12, 12, 12, 22, 22, 22, 22, 22, 22, 18, 17, 17, 17, 16, 16, 17, 16, 13, 9, 4, 3, 14, 14, 14, 14, 14, 13, 13, 12, 11, 12, 11, 12, 9, 7, 5, 5, 3, 1, 9, 8, 8, 8, 8, 8, 22, 17, 16, 13, 10, 7, 11, 10, 9, 8, 7, 5, 20, 20, 15, 14, 10, 8, 14, 14, 14, 14, 14, 13, 17, 16, 16, 16, 15, 15, 26, 26, 26, 26, 25, 25, 25, 20, 18, 17, 9, 7, 15, 12, 12, 7, 7, 4, 18, 16, 14, 12, 11, 6, 20, 18, 15, 12, 10, 9, 2, 3, 2, 1, 1, 1, 6, 5, 4, 5, 4, 3, 28, 26, 25, 22, 20, 16, 25, 23, 21, 19, 15, 14, 19, 16, 16, 14, 9, 7, 12, 12, 12, 12, 12, 12, 12, 10, 7, 6, 4, 3, 24, 19, 16, 15, 12, 10, 25, 22, 18, 16, 11, 11, 4, 3, 3, 3, 1, 1, 14, 13, 9, 9, 6, 3, 28, 27, 25, 25, 23, 22, 19, 19, 18, 15, 14, 12, 24, 17, 14, 9, 4, 3, 26, 23, 20, 19, 17, 14, 24, 23, 19, 17, 14, 10, 24, 16, 15, 9, 7, 3, 23, 23, 22, 20, 20, 19, 28, 26, 23, 20, 20, 16, 3, 3, 3, 2, 2, 2, 25, 22, 21, 19, 18, 16, 12, 10, 8, 6, 6, 4, 11, 10, 8, 7, 3, 3|];